205 264
326 115
119 19
343 356
320 268
311 312
273 16
385 109
273 60
293 255
326 5
304 399
250 359
25 146
282 363
266 149
383 225
23 72
167 62
198 82
50 304
324 257
163 4
52 107
242 112
331 227
296 182
313 212
87 366
92 101
125 202
70 247
97 70
354 387
100 62
48 24
26 62
247 53
103 121
135 24
112 10
227 320
353 79
264 128
45 6
263 244
162 108
6 10
54 188
343 371
133 241
44 68
361 270
388 238
190 170
372 334
129 348
280 44
34 169
230 296
167 300
6 213
327 280
102 186
399 122
85 232
246 348
23 59
160 20
8 198
251 44
16 269
277 230
269 85
27 120
